%utilitarian will allow negative outcome for one agent
%leximin is 91,9% of utilitarian
%leximin and rawls are equal
%worst agent: from -75 to 35
Site = { 1,2,3,4,5,6 };
hotel = 6;
distance = [| 0, 14, 3, 9, 10, 5
            | 11, 0, 8, 6, 12, 4
            | 15, 1, 0, 16, 18, 17
            | 20, 19, 22, 0, 21, 23
            | 26, 24, 27, 28, 0, 30
            | 31, 32, 33, 34, 35, 0 |];

durationOfVisit = [7, 14, 3, 9, 10, 5];
siteOpens = [ 4, 4, 10, 10, 40, 0];
siteCloses = [ 70, 70, 70, 70, 70, 200 ];

num_passengers = 4;
site_score =   [| 7, 50, 75, 80, 0, 0
                | 28, 0, 42, 0, 0, 0
                | 9, 0, 79, 79, 7, 50
                | 18, 40, 0, 4, 5, 100 |];
preferred_n_sites = [ 2, 2, 2, 2 ];
preferred_travel_time = [ 63, 54, 86, 32 ];
preference_weights = [| 20,100,1
                      | 20,400,1
                      | 20,100,1
                      | 10,100,1 |];
